0001 9
0002 9
0003 31
0004 7
0005 1
0006 22
0007 38
0008 10
0009 13
0010 33
0011 8
0012 0
0013 5
0014 29
0015 1
0016 29
0017 26
0018 9
0019 28
0020 8
0021 3
0022 15
0023 33
0024 27
0025 5
0026 18
0027 35
0028 11
0029 28
0030 14
0031 29
0032 26
0033 0
0034 22
0035 38
0036 28
0037 22
0038 18
0039 5
0040 22
0041 12
0042 26
0043 10
0044 9
0045 36
0046 16
0047 5
0048 16
0049 11
0050 38
0051 3
0052 16
0053 22
0054 22
0055 38
0056 36
0057 33
0058 15
0059 29
0060 5
0061 35
0062 35
0063 8
0064 34
0065 38
0066 15
0067 16
0068 6
0069 23
0070 37
0071 17
0072 25
0073 9
0074 7
0075 32
0076 9
0077 13
0078 27
0079 11
0080 14
0081 6
0082 19
0083 26
0084 14
0085 16
0086 28
0087 2
0088 22
0089 15
0090 35
0091 3
0092 0
0093 4
0094 27
0095 21
0096 26
0097 5
0098 34
0099 33
0100 17
0101 23
0102 22
0103 27
0104 8
0105 33
0106 7
0107 28
0108 18
0109 17
0110 13
0111 3
0112 33
0113 5
0114 10
0115 19
0116 14
0117 15
0118 21
0119 22
0120 28
0121 17
0122 4
0123 33
0124 14
0125 0
0126 18
0127 4
0128 11
0129 0
0130 35
0131 34
0132 28
0133 15
0134 35
0135 33
0136 29
0137 35
0138 18
0139 18
0140 28
0141 7
0142 17
0143 0
0144 4
0145 5
0146 2
0147 11
0148 14
0149 33
0150 1
0151 1
0152 24
0153 4
0154 8
0155 30
0156 33
0157 30
0158 20
0159 10
0160 0
0161 2
0162 32
0163 3
0164 26
0165 29
0166 10
0167 7
0168 12
0169 27
0170 6
0171 18
0172 25
0173 24
0174 4
0175 21
0176 9
0177 3
0178 38
0179 11
0180 17
0181 2
0182 12
0183 13
0184 20
0185 34
0186 2
0187 16
0188 5
0189 3
0190 15
0191 14
0192 8
0193 3
0194 14
0195 1
0196 17
0197 29
0198 2
0199 4
0200 6
0201 4
0202 12
0203 0
0204 18
0205 11
0206 34
0207 28
0208 10
0209 16
0210 34
0211 27
0212 13
0213 0
0214 14
0215 0
0216 14
0217 12
0218 15
0219 33
0220 2
0221 24
0222 0
0223 35
0224 33
0225 25
0226 17
0227 20
0228 27
0229 4
0230 28
0231 22
0232 35
0233 12
0234 30
0235 1
0236 19
0237 9
0238 28
0239 26
0240 13
0241 3
0242 35
0243 14
0244 17
0245 17
0246 24
0247 3
0248 17
0249 17
0250 4
0251 22
0252 34
0253 8
0254 11
0255 15
0256 10
0257 13
0258 33
0259 3
0260 38
0261 16
0262 4
0263 28
0264 28
0265 26
0266 3
0267 21
0268 15
0269 7
0270 8
0271 29
0272 1
0273 23
0274 21
0275 38
0276 34
0277 26
0278 14
0279 34
0280 11
0281 29
0282 12
0283 6
0284 18
0285 17
0286 5
0287 22
0288 14
0289 2
0290 28
0291 3
0292 17
0293 10
0294 4
0295 28
0296 5
0297 34
0298 16
0299 14
0300 14
0301 20
0302 33
0303 38
0304 12
0305 1
0306 1
0307 1
0308 13
0309 34
0310 1
0311 28
0312 17
0313 16
0314 16
0315 0
0316 19
0317 27
0318 25
0319 26
0320 8
0321 2
0322 29
0323 21
0324 15
0325 0
0326 14
0327 34
0328 5
0329 17
0330 12
0331 1
0332 2
0333 0
0334 20
0335 16
0336 15
0337 4
0338 28
0339 13
0340 5
0341 14
0342 3
0343 34
0344 2
0345 28
0346 8
0347 14
0348 29
0349 0
0350 31
0351 37
0352 23
0353 23
0354 23
0355 23
0356 5
0357 30
0358 5
0359 10
0360 22
0361 21
0362 23
0363 14
0364 34
0365 16
0366 13
0367 15
0368 38
0369 7
0370 7
0371 1
0372 24
0373 5
0374 6
0375 28
0376 26
0377 13
0378 6
0379 3
0380 17
0381 29
0382 5
0383 9
0384 26
0385 0
0386 18
0387 14
0388 35
0389 9
0390 30
0391 17
0392 2
0393 32
0394 0
0395 32
0396 2
0397 2
0398 2
0399 10
0400 18
0401 22
0402 33
0403 22
0404 21
0405 33
0406 8
0407 15
0408 24
0409 6
0410 17
0411 11
0412 16
0413 28
0414 2
0415 34
0416 14
0417 5
0418 5
0419 26
0420 26
0421 30
0422 31
0423 18
0424 15
0425 14
0426 27
0427 16
0428 12
0429 12
0430 22
0431 2
0432 20
0433 21
0434 17
0435 11
0436 3
0437 32
0438 9
0439 13
0440 0
0441 0
0442 0
0443 29
0444 29
0445 29
0446 29
0447 13
0448 20
0449 0
0450 30
0451 35
0452 28
0453 28
0454 19
0455 31
0456 1
0457 33
0458 8
0459 8
0460 27
0461 18
0462 11
0463 13
0464 19
0465 3
0466 20
0467 27
0468 18
0469 14
0470 0
0471 38
0472 15
0473 10
0474 19
0475 7
0476 26
0477 2
0478 23
0479 16
0480 22
0481 28
0482 7
0483 11
0484 6
0485 10
0486 11
0487 10
0488 22
0489 34
0490 6
0491 28
0492 19
0493 22
0494 38
0495 19
0496 14
0497 35
0498 16
0499 30
0500 9
0501 2
0502 13
0503 8
0504 17
0505 5
0506 34
0507 17
0508 10
0509 20
0510 26
0511 11
0512 2
0513 1
0514 27
0515 4
0516 3
0517 21
0518 29
0519 8
0520 18
0521 38
0522 1
0523 29
0524 11
0525 3
0526 28
0527 28
0528 28
0529 2
0530 17
0531 6
0532 3
0533 1
0534 33
0535 5
0536 4
0537 22
0538 15
0539 5
0540 21
0541 22
0542 6
0543 33
0544 22
0545 17
0546 12
0547 6
0548 9
0549 3
0550 1
0551 15
0552 6
0553 17
0554 7
0555 11
0556 29
0557 3
0558 1
0559 19
0560 24
0561 26
0562 27
0563 35
0564 11
0565 20
0566 30
0567 22
0568 29
0569 16
0570 4
0571 5
0572 16
0573 19
0574 29
0575 18
0576 0
0577 13
0578 13
0579 22
0580 28
0581 2
0582 1
0583 6
0584 4
0585 8
0586 4
0587 34
0588 18
0589 22
0590 28
0591 6
0592 17
0593 28
0594 7
0595 1
0596 0
0597 28
0598 30
0599 34
0600 34
0601 33
0602 7
0603 29
0604 28
0605 16
0606 22
0607 7
0608 0
0609 4
0610 15
0611 9
0612 28
0613 1
0614 7
0615 2
0616 3
0617 12
0618 18
0619 2
0620 29
0621 6
0622 13
0623 14
0624 28
0625 0
0626 34
0627 6
0628 2
0629 1
0630 28
0631 3
0632 29
0633 5
0634 8
0635 9
0636 9
0637 15
0638 1
0639 22
0640 7
0641 33
0642 19
0643 11
0644 18
0645 34
0646 9
0647 5
0648 10
0649 11
0650 8
0651 9
0652 5
0653 2
0654 1
0655 1
0656 0
0657 0
0658 38
0659 10
0660 19
0661 9
0662 35
0663 11
0664 22
0665 17
0666 3
0667 15
0668 9
0669 6
0670 27
0671 10
0672 0
0673 8
0674 1
0675 14
0676 24
0677 34
0678 6
0679 28
0680 1
0681 29
0682 8
